Name: Ing1011-1
Courses: 122
Rooms: 21
Days: 5
Periods_per_day: 5
Curricula: 71
Constraints: 833

COURSES:
c1484 t000 4 3 16
c1783 t001 4 4 55
c1717 t002 8 2 50
c1599 t003 4 3 150
c1392 t004 2 2 5
c1486 t005 2 1 16
c1514 t006 2 2 15
c1532 t007 2 2 35
c1533 t008 2 2 85
c1571 t009 2 2 37
c1573 t010 2 2 67
c1594 t011 2 2 5
c1606 t012 4 2 150
c1609 t013 3 1 80
c1613 t014 3 3 150
c1619 t015 2 2 150
c1622 t016 2 2 75
c1624 t017 2 1 75
c1641 t018 3 3 70
c1716 t019 3 2 50
c1791 t020 2 1 115
c3190 t021 4 3 124
c1801 t022 2 2 35
c3178 t023 3 2 161
c3170 t024 2 2 161
c3171 t025 4 4 161
c3173 t026 2 2 85
c3177 t027 2 2 10
c3181 t028 1 1 80
c3183 t029 2 2 165
c3192 t030 4 4 155
c3189 t031 2 2 137
c3195 t032 4 3 105
c3199 t033 2 2 115
c3200 t034 2 2 47
c3201 t035 4 4 47
c3205 t036 2 2 50
c3206 t037 2 2 50
c3209 t038 2 2 60
c3213 t039 2 2 60
c3216 t040 2 2 70
c3219 t041 2 2 50
c3221 t042 4 3 60
c3222 t043 4 3 146
c3223 t034 2 2 146
c3204 t044 4 3 47
c3228 t045 2 2 120
c3234 t046 2 2 190
c3232 t047 3 3 130
c3237 t048 2 2 120
c3238 t008 2 2 146
c3241 t049 2 2 185
c3246 t040 3 3 120
c3244 t050 3 2 130
c3250 t051 4 3 106
c3252 t052 2 2 106
c3253 t053 2 1 106
c3254 t054 2 2 106
c3254b t054 1 1 106
c3258 t055 2 2 100
c3259 t056 2 2 110
c3260 t057 2 2 100
c3261 t058 2 2 100
c3264 t059 5 4 110
c3267 t060 4 3 150
c3288 t061 4 4 60
c3289 t062 5 4 60
c3294 t063 2 2 60
c3311 t064 2 2 35
c3324 t008 2 2 72
c3331 t003 2 2 70
c3336 t065 2 2 137
c3346 t066 2 2 20
c3350 t041 2 2 75
c3358 t067 2 2 33
c3365 t066 2 2 60
c3367 t068 4 4 40
c3445 t069 4 1 75
c3562 t070 4 1 75
c3377 t071 4 3 19
c3379 t072 2 2 5
c3431 t073 4 3 120
c3397 t031 2 2 147
c3399 t074 2 2 10
c3406 t075 2 2 10
c3408 t076 2 2 90
c3411 t077 2 2 112
c3414 t075 2 2 20
c3415 t078 2 2 90
c3417 t056 2 2 22
c3421 t079 2 2 10
c3371 t080 4 3 10
c3427 t079 2 2 15
c3432 t081 4 3 120
c3444 t082 5 4 150
c3449 t083 2 2 50
c3450 t084 6 2 50
c3451 t085 2 2 50
c3452 t029 2 2 50
c3453 t086 2 2 50
c3454 t082 2 2 60
c3455 t087 2 2 50
c3469 t088 2 2 10
c3470 t027 2 2 10
c3473 t028 2 2 10
c3479 t089 2 2 60
c3489 t090 2 2 15
c3493 t049 2 2 70
c3494 t091 2 1 70
c3509 t092 2 2 15
c3513 t093 2 2 55
c3519 t094 2 1 22
c3519b t094 1 1 12
c3573 t067 3 3 140
c3528 t093 2 2 40
c3557 t095 2 2 50
c3560 t096 2 2 22
c3565 t052 2 2 146
c3567 t086 2 2 60
c3574 t006 1 1 110
c3257 t039 2 2 100
c3433 t097 2 2 120

ROOMS:
r25 40
r36 42
r37 42
r38 48
r34 50
r27 65
B 216
D 216
F 216
G 216
A 312
L 336
N 30
Er1 70
Er2 70
r52 60
E 216
r50 75
r51 78
DS1 60
DS2 60

CURRICULA:
q000 5 c3573 c3234 c3192 c3513 c3528 
q001 4 c3573 c3234 c3192 c3199 
q002 2 c3417 c3190 
q003 5 c3189 c3519 c3519b c3190 c3397 
q004 3 c3170 c3171 c3178 
q005 5 c3173 c3181 c3192 c3199 c3216 
q006 5 c3173 c3181 c3192 c3199 c3509 
q007 4 c3173 c3181 c3192 c3199 
q008 5 c3173 c3181 c3192 c3199 c3177 
q009 5 c3173 c3181 c3192 c3199 c3232 
q010 5 c3173 c3181 c3192 c3199 c3183 
q011 5 c3173 c3181 c3192 c3199 c3519 
q012 5 c3173 c3181 c3192 c3199 c3574 
q013 4 c3189 c3190 c3195 c3574 
q014 4 c3173 c1392 c3192 c3199 
q015 3 c3509 c3195 c3183 
q016 3 c3200 c3201 c3204 
q017 4 c3209 c3213 c3216 c3221 
q018 4 c3205 c3206 c3219 c3557 
q019 4 c3222 c3223 c3238 c3565 
q020 4 c3228 c3232 c3234 c3246 
q021 4 c3237 c3241 c3244 c1533 
q022 4 c3241 c3244 c3513 c3259 
q023 4 c3241 c3244 c3267 c3237 
q024 5 c3250 c3252 c3253 c3254 c3254b 
q025 5 c3257 c3258 c3259 c3260 c3261 
q026 3 c3264 c3267 c3573 
q027 4 c3324 c1571 c3336 c1573 
q028 4 c3365 c1571 c3336 c1573 
q029 3 c3336 c1573 c3264 
q030 5 c3336 c1573 c3513 c1594 c3427 
q031 3 c3397 c3414 c3567 
q032 2 c3397 c3189 
q033 4 c1532 c1533 c3350 c3358 
q034 5 c1532 c1533 c3350 c3358 c1571 
q035 4 c1532 c1533 c3560 c3350 
q036 3 c1783 c1791 c3241 
q037 5 c1783 c1791 c3241 c3311 c1801 
q038 2 c1783 c1791 
q039 2 c1514 c3377 
q040 3 c3377 c1484 c1486 
q041 3 c1484 c1486 c3411 
q042 6 c3479 c1716 c1717 c3449 c3451 c3567 
q043 5 c3450 c3452 c3453 c3454 c3455 
q044 4 c1599 c1606 c3444 c3445 
q045 4 c1599 c1606 c3444 c3562 
q046 5 c1609 c1613 c1619 c1622 c3183 
q047 5 c1609 c1613 c1619 c1624 c3183 
q048 5 c1613 c1619 c1622 c1641 c3183 
q049 5 c1613 c1619 c1624 c1641 c3183 
q050 3 c3431 c3432 c3433 
q051 5 c3397 c3408 c3411 c3415 c3399 
q052 5 c3397 c3408 c3411 c3415 c3406 
q053 4 c3397 c3408 c3411 c3415 
q054 5 c3397 c3408 c3411 c3415 c3414 
q055 5 c3397 c3408 c3411 c3415 c3469 
q056 5 c3397 c3408 c3411 c3415 c3470 
q057 5 c3397 c3408 c3411 c3415 c3473 
q058 5 c3397 c3408 c3411 c3415 c3479 
q059 5 c3397 c3408 c3411 c3415 c3454 
q060 4 c3417 c3421 c1514 c3427 
q061 4 c3288 c3289 c3294 c1791 
q062 5 c3288 c3289 c3294 c3241 c1791 
q063 7 c3288 c3289 c3294 c3311 c1801 c3489 c1791 
q065 4 c3397 c3371 c3377 c3411 
q066 5 c3397 c3371 c3377 c3379 c3411 
q067 4 c3350 c3365 c3367 c3346 
q068 5 c3350 c3365 c3367 c3346 c3358 
q069 4 c3350 c3365 c3367 c3560 
q070 4 c3350 c3365 c3367 c1533 
q071 5 c3324 c3331 c3336 c3493 c3494 

UNAVAILABILITY_CONSTRAINTS:
c1783 4 3
c1783 4 4
c1599 0 0
c1599 0 1
c1599 3 4
c1599 4 0
c1599 4 1
c1599 4 2
c1599 4 3
c1599 4 4
c1486 0 3
c1486 0 4
c1486 4 0
c1486 4 1
c1486 4 2
c1486 4 3
c1486 4 4
c1514 0 0
c1514 1 0
c1514 2 0
c1514 3 0
c1514 4 0
c1532 0 0
c1532 0 1
c1532 0 2
c1532 0 3
c1532 0 4
c1532 4 2
c1532 4 3
c1532 4 4
c1533 0 4
c1533 1 4
c1533 2 2
c1533 2 3
c1533 2 4
c1533 3 1
c1533 3 4
c1533 4 3
c1533 4 4
c1571 0 0
c1571 0 4
c1571 1 0
c1571 2 0
c1571 3 0
c1571 3 4
c1571 4 0
c1571 4 3
c1571 4 4
c1573 0 0
c1573 0 1
c1573 0 2
c1573 4 0
c1573 4 1
c1573 4 2
c1573 4 3
c1573 4 4
c1594 0 0
c1594 0 1
c1594 0 2
c1594 0 3
c1594 1 0
c1594 2 0
c1594 3 0
c1594 4 0
c1594 4 3
c1594 4 4
c1609 0 0
c1609 0 1
c1609 0 2
c1609 0 3
c1609 0 4
c1609 1 0
c1609 1 1
c1609 1 2
c1609 1 3
c1609 1 4
c1609 2 0
c1609 2 1
c1609 2 2
c1609 2 3
c1609 2 4
c1609 3 0
c1609 3 1
c1609 3 2
c1609 3 3
c1609 3 4
c1613 1 0
c1613 2 4
c1613 3 0
c1613 4 2
c1613 4 3
c1613 4 4
c1619 0 0
c1619 0 1
c1619 0 2
c1619 0 3
c1619 0 4
c1624 0 2
c1624 1 2
c1624 2 2
c1624 3 2
c1641 0 0
c1641 1 0
c1641 2 0
c1641 2 1
c1641 2 2
c1641 2 3
c1641 3 0
c1641 4 0
c1716 0 0
c1716 0 1
c1716 0 2
c1716 0 3
c1716 0 4
c1716 1 0
c1716 1 1
c1716 1 2
c1791 4 3
c1791 4 4
c3190 0 0
c3190 0 2
c3190 1 2
c3190 2 2
c3190 3 2
c3190 4 0
c3190 4 4
c1801 0 2
c1801 1 2
c1801 2 2
c1801 2 3
c1801 2 4
c1801 3 2
c1801 4 0
c1801 4 1
c1801 4 3
c1801 4 4
c3178 0 0
c3178 0 1
c3178 0 2
c3178 0 3
c3178 0 4
c3178 4 2
c3178 4 3
c3178 4 4
c3170 0 2
c3170 1 2
c3170 2 2
c3170 3 2
c3170 4 2
c3171 0 2
c3171 0 3
c3171 0 4
c3171 1 2
c3171 1 3
c3171 1 4
c3171 2 2
c3171 2 3
c3171 2 4
c3171 3 2
c3171 3 3
c3171 3 4
c3171 4 2
c3171 4 3
c3171 4 4
c3177 0 2
c3177 1 2
c3177 2 2
c3177 3 2
c3177 4 0
c3177 4 2
c3177 4 3
c3177 4 4
c3181 0 0
c3181 0 1
c3181 0 2
c3181 0 3
c3181 0 4
c3181 4 2
c3181 4 3
c3181 4 4
c3183 0 0
c3183 0 1
c3183 0 2
c3183 0 3
c3183 0 4
c3183 2 0
c3183 2 1
c3183 2 2
c3183 2 3
c3183 2 4
c3183 3 0
c3183 3 1
c3183 3 2
c3183 3 3
c3183 3 4
c3192 0 4
c3192 1 4
c3192 2 4
c3192 3 4
c3192 4 3
c3192 4 4
c3189 0 0
c3189 4 0
c3189 4 1
c3189 4 2
c3189 4 3
c3189 4 4
c3199 0 3
c3199 0 4
c3199 1 3
c3199 1 4
c3199 2 3
c3199 2 4
c3199 3 3
c3199 3 4
c3199 4 0
c3199 4 1
c3199 4 2
c3199 4 3
c3199 4 4
c3200 0 2
c3200 0 3
c3200 0 4
c3200 1 2
c3200 1 3
c3200 1 4
c3200 2 2
c3200 2 3
c3200 2 4
c3200 3 2
c3200 3 3
c3200 3 4
c3200 4 2
c3200 4 3
c3200 4 4
c3201 0 2
c3201 0 4
c3201 1 2
c3201 1 4
c3201 2 2
c3201 3 2
c3201 4 2
c3201 4 4
c3205 0 0
c3205 0 4
c3205 1 0
c3205 1 4
c3205 2 0
c3205 2 4
c3205 3 0
c3205 4 0
c3206 0 0
c3206 4 4
c3209 0 0
c3209 0 1
c3209 0 4
c3209 1 4
c3209 2 4
c3209 3 4
c3209 4 4
c3213 0 0
c3213 0 1
c3213 0 2
c3213 0 3
c3213 4 1
c3213 4 2
c3213 4 3
c3213 4 4
c3216 0 0
c3216 0 1
c3216 0 2
c3216 0 3
c3216 0 4
c3216 2 0
c3216 4 0
c3216 4 4
c3219 0 2
c3219 0 3
c3219 0 4
c3219 1 3
c3219 1 4
c3219 4 2
c3219 4 3
c3219 4 4
c3221 0 0
c3221 1 0
c3221 2 0
c3221 2 3
c3221 2 4
c3221 3 0
c3221 4 0
c3222 0 0
c3222 0 2
c3222 1 0
c3222 1 2
c3222 2 0
c3222 2 2
c3222 3 0
c3222 4 0
c3223 0 2
c3223 0 3
c3223 0 4
c3223 1 2
c3223 1 3
c3223 1 4
c3223 2 2
c3223 2 3
c3223 2 4
c3223 3 2
c3223 3 3
c3223 3 4
c3223 4 2
c3223 4 3
c3223 4 4
c3228 0 0
c3228 0 1
c3228 0 2
c3228 4 0
c3228 4 1
c3228 4 2
c3228 4 3
c3228 4 4
c3234 1 2
c3234 2 2
c3234 3 2
c3234 4 0
c3234 4 1
c3234 4 2
c3234 4 3
c3234 4 4
c3232 1 0
c3232 2 0
c3232 4 0
c3232 4 1
c3232 4 2
c3232 4 3
c3232 4 4
c3237 0 0
c3237 0 1
c3237 0 2
c3237 0 3
c3237 4 1
c3237 4 2
c3237 4 3
c3237 4 4
c3238 0 4
c3238 1 4
c3238 2 2
c3238 2 3
c3238 2 4
c3238 4 3
c3238 4 4
c3241 0 0
c3241 0 1
c3241 0 2
c3241 0 3
c3241 0 4
c3241 4 0
c3241 4 1
c3241 4 2
c3241 4 3
c3241 4 4
c3246 0 0
c3246 0 1
c3246 0 2
c3246 0 3
c3246 0 4
c3246 2 0
c3246 4 0
c3246 4 4
c3244 0 0
c3244 0 4
c3244 1 0
c3244 2 0
c3244 2 4
c3244 3 0
c3244 4 0
c3244 4 4
c3252 0 0
c3252 0 1
c3252 1 0
c3252 1 1
c3252 2 0
c3252 2 1
c3252 3 0
c3252 4 0
c3253 1 1
c3253 1 2
c3253 1 3
c3253 2 1
c3253 2 2
c3253 2 3
c3253 3 1
c3253 3 3
c3254 0 0
c3254 0 1
c3254 0 2
c3254 0 3
c3254 0 4
c3254 1 0
c3254 2 0
c3254 2 1
c3254 2 2
c3254 2 3
c3254 2 4
c3254 3 0
c3254 4 0
c3254 4 1
c3254 4 2
c3254 4 3
c3254 4 4
c3258 2 0
c3258 2 1
c3258 2 2
c3258 2 3
c3258 2 4
c3258 3 0
c3258 3 1
c3258 3 2
c3258 3 3
c3258 3 4
c3258 4 0
c3258 4 1
c3258 4 2
c3258 4 3
c3258 4 4
c3259 0 2
c3259 1 0
c3259 1 2
c3259 1 4
c3259 2 2
c3259 3 0
c3259 3 2
c3259 3 4
c3259 4 2
c3261 0 0
c3261 0 1
c3264 0 4
c3264 1 0
c3264 1 1
c3264 1 2
c3264 1 3
c3264 2 3
c3264 2 4
c3264 3 3
c3264 3 4
c3264 4 3
c3264 4 4
c3267 0 1
c3267 3 0
c3267 3 1
c3267 3 2
c3267 3 3
c3267 3 4
c3267 4 0
c3267 4 1
c3267 4 2
c3267 4 3
c3267 4 4
c3288 0 0
c3288 0 1
c3288 0 2
c3288 1 0
c3288 2 0
c3288 3 0
c3288 4 0
c3288 4 3
c3288 4 4
c3289 0 0
c3289 0 4
c3289 1 0
c3289 1 1
c3289 1 2
c3289 1 3
c3289 1 4
c3289 2 0
c3289 2 4
c3289 3 0
c3289 3 1
c3289 3 2
c3289 3 3
c3289 3 4
c3289 4 0
c3289 4 3
c3289 4 4
c3294 0 0
c3294 1 0
c3294 2 0
c3294 3 0
c3294 4 0
c3294 4 3
c3294 4 4
c3311 4 3
c3311 4 4
c3324 0 4
c3324 1 4
c3324 2 2
c3324 2 3
c3324 2 4
c3324 3 4
c3324 4 3
c3324 4 4
c3331 0 0
c3331 0 1
c3331 3 4
c3331 4 0
c3331 4 1
c3331 4 2
c3331 4 3
c3331 4 4
c3336 0 0
c3336 0 1
c3336 0 2
c3336 0 3
c3336 0 4
c3336 4 2
c3336 4 3
c3336 4 4
c3346 0 0
c3346 0 1
c3346 0 2
c3346 0 3
c3346 0 4
c3346 1 0
c3346 1 1
c3346 4 4
c3358 0 0
c3358 0 1
c3358 0 2
c3358 0 3
c3358 0 4
c3358 3 0
c3358 3 1
c3358 3 2
c3358 3 3
c3358 3 4
c3358 4 0
c3358 4 1
c3358 4 2
c3358 4 3
c3358 4 4
c3365 0 0
c3365 0 1
c3365 0 2
c3365 0 3
c3365 0 4
c3365 1 0
c3365 1 1
c3365 4 3
c3365 4 4
c3367 1 2
c3367 1 3
c3367 1 4
c3367 2 2
c3367 2 3
c3367 2 4
c3367 4 3
c3367 4 4
c3445 0 0
c3445 0 1
c3445 0 2
c3445 1 0
c3445 1 1
c3445 1 2
c3445 2 0
c3445 2 1
c3377 0 0
c3377 0 1
c3377 0 2
c3377 0 3
c3377 0 4
c3377 4 2
c3377 4 3
c3377 4 4
c3379 0 0
c3379 0 2
c3379 1 0
c3379 1 2
c3379 2 0
c3379 2 2
c3379 3 0
c3379 4 0
c3431 0 2
c3431 0 4
c3431 1 4
c3431 2 4
c3431 3 4
c3431 4 2
c3431 4 4
c3397 0 0
c3397 4 0
c3397 4 1
c3397 4 2
c3397 4 3
c3397 4 4
c3411 0 0
c3411 0 1
c3411 0 2
c3411 0 3
c3411 0 4
c3411 1 0
c3411 1 1
c3411 1 2
c3411 1 3
c3411 1 4
c3411 2 0
c3411 2 1
c3411 2 2
c3411 2 3
c3411 2 4
c3411 3 0
c3411 3 1
c3411 3 2
c3411 3 3
c3411 3 4
c3411 4 0
c3411 4 1
c3411 4 2
c3414 0 2
c3414 1 0
c3414 1 2
c3414 2 2
c3414 2 3
c3414 2 4
c3414 4 0
c3414 4 2
c3417 0 2
c3417 1 2
c3417 2 2
c3417 3 2
c3417 4 2
c3421 0 1
c3421 0 2
c3421 1 2
c3421 2 2
c3421 3 2
c3421 4 2
c3427 0 1
c3427 0 2
c3427 1 2
c3427 2 2
c3427 3 2
c3427 4 2
c3427 4 3
c3427 4 4
c3432 0 0
c3432 1 0
c3432 1 1
c3432 1 2
c3432 1 3
c3432 1 4
c3432 4 3
c3432 4 4
c3449 0 0
c3449 0 1
c3449 2 3
c3449 2 4
c3449 3 0
c3449 3 1
c3449 4 3
c3449 4 4
c3450 1 0
c3450 1 1
c3450 1 2
c3450 3 0
c3450 3 1
c3450 3 2
c3450 3 3
c3450 3 4
c3451 0 0
c3451 1 0
c3451 2 0
c3451 3 0
c3451 4 0
c3451 4 1
c3451 4 2
c3451 4 3
c3451 4 4
c3452 0 0
c3452 0 1
c3452 0 2
c3452 0 3
c3452 2 0
c3452 2 1
c3452 2 2
c3452 2 3
c3452 2 4
c3469 0 1
c3469 0 2
c3469 1 2
c3469 2 2
c3469 3 2
c3469 4 2
c3469 4 3
c3469 4 4
c3470 0 2
c3470 1 2
c3470 2 2
c3470 3 2
c3470 4 0
c3470 4 2
c3470 4 3
c3470 4 4
c3473 0 0
c3473 0 1
c3473 0 2
c3473 0 3
c3473 0 4
c3473 4 2
c3473 4 3
c3473 4 4
c3479 0 2
c3479 1 2
c3479 2 2
c3479 2 3
c3479 2 4
c3479 3 2
c3479 4 2
c3479 4 4
c3489 0 0
c3489 0 1
c3489 0 2
c3489 0 3
c3489 0 4
c3489 4 3
c3489 4 4
c3493 0 0
c3493 0 1
c3493 0 2
c3493 0 3
c3493 0 4
c3493 3 0
c3493 3 1
c3493 3 2
c3493 3 3
c3493 3 4
c3493 4 0
c3493 4 1
c3493 4 2
c3493 4 3
c3493 4 4
c3494 4 3
c3494 4 4
c3509 0 1
c3509 0 2
c3509 0 3
c3509 1 1
c3509 1 2
c3509 1 3
c3509 2 0
c3509 2 1
c3509 2 2
c3509 2 3
c3509 2 4
c3509 3 0
c3509 3 1
c3509 3 2
c3509 3 3
c3509 3 4
c3509 4 0
c3509 4 1
c3509 4 2
c3509 4 3
c3509 4 4
c3513 0 0
c3513 0 1
c3513 0 2
c3513 2 0
c3513 2 1
c3513 2 2
c3513 4 3
c3513 4 4
c3519 2 3
c3519 2 4
c3573 0 0
c3573 0 1
c3573 0 2
c3573 0 3
c3573 0 4
c3573 3 0
c3573 3 1
c3573 3 2
c3573 3 3
c3573 3 4
c3573 4 0
c3573 4 1
c3573 4 2
c3573 4 3
c3573 4 4
c3557 0 0
c3557 0 1
c3557 0 2
c3557 0 4
c3557 1 2
c3557 2 2
c3557 3 2
c3557 4 2
c3560 0 0
c3560 0 1
c3560 0 2
c3560 0 3
c3560 0 4
c3560 3 0
c3560 3 1
c3560 3 2
c3560 3 3
c3560 3 4
c3560 4 0
c3560 4 1
c3560 4 2
c3560 4 3
c3560 4 4
c3565 0 0
c3565 0 1
c3565 1 0
c3565 1 1
c3565 2 0
c3565 2 1
c3565 3 0
c3565 4 0
c3574 0 4
c3574 1 4
c3574 2 4
c3574 3 4
c3574 4 4
c3257 0 0
c3257 0 1
c3257 0 2
c3257 0 3
c3257 4 1
c3257 4 2
c3257 4 3
c3257 4 4

END.
